c This is QMaxSAT 2017 based on 14.07
c This is Glucose 3.0
c This is MiniSat 2.2.0
c WARNING: for repeatability, setting FPU to use double precision
c card = mrwto, comp = 0, pmodel = 0, narr = 4, mct = 24, verb = 0
cr firstCPXsol 0 0 0
c top = 81479
c |  Number of variables:    13942                                            |
c |  Number of clauses:      2913832                                          |
c |  Weight of hard clauses: 81479                                            |
c |  Number of soft clauses: 2208                                             |
c |  Number of unit soft clauses: 2208                                        |
c |  Maximum Cardinality (by unit): 325912       (325912      )               |
c last restart ## conflicts  :  0 625 
o 1346 | cpuTime 0.233582 s
c Sum of weights = 81478
c A number of soft clauses remained = 552
c MRWTO encoding for Pseudo-Boolean Constraints
c sizeMax=1346
c No.0 Divisor=12	generated by pow1
c No.1 Divisor=12	generated by pow1
c No.2 Divisor=12	generated by pow1
c p0= 12	p1= 12	p2= 12	
c number of digits = 4
c linkingVar[0].size = 12, linkingVar[1].size = 12, linkingVar[2].size = 10, linkingVar[3].size = 1, 
c Pseudo-Boolean Constraints: 12051 variables and 115467 clauses
c Sum of weights = 81478
c A number of soft clauses remained = 552
c MRWTO encoding for Pseudo-Boolean Constraints
c sizeMax=1346
c No.0 Divisor=12	generated by pow1
c No.1 Divisor=12	generated by pow1
c No.2 Divisor=12	generated by pow1
c p0= 12	p1= 12	p2= 12	
c number of digits = 4
c linkingVar[0].size = 12, linkingVar[1].size = 12, linkingVar[2].size = 10, linkingVar[3].size = 1, 
c Pseudo-Boolean Constraints: 12051 variables and 115467 clauses
c Sum of weights = 81478
c A number of soft clauses remained = 552
c MRWTO encoding for Pseudo-Boolean Constraints
c sizeMax=1346
c No.0 Divisor=12	generated by pow1
c No.1 Divisor=12	generated by pow1
c No.2 Divisor=12	generated by pow1
c p0= 12	p1= 12	p2= 12	
c number of digits = 4
c linkingVar[0].size = 12, linkingVar[1].size = 12, linkingVar[2].size = 10, linkingVar[3].size = 1, 
c Pseudo-Boolean Constraints: 12051 variables and 115467 clauses
c Sum of weights = 81478
c A number of soft clauses remained = 552
c MRWTO encoding for Pseudo-Boolean Constraints
c sizeMax=1346
c No.0 Divisor=12	generated by pow1
c No.1 Divisor=12	generated by pow1
c No.2 Divisor=12	generated by pow1
c p0= 12	p1= 12	p2= 12	
c number of digits = 4
c linkingVar[0].size = 12, linkingVar[1].size = 12, linkingVar[2].size = 10, linkingVar[3].size = 1, 
c Pseudo-Boolean Constraints: 12051 variables and 115467 clauses
c last restart ## conflicts  :  217 2492 
o 1254 | cpuTime 2.66253 s
c last restart ## conflicts  :  441 2850 
o 1215 | cpuTime 3.44298 s
c last restart ## conflicts  :  269 4569 
o 1162 | cpuTime 3.5156 s
c last restart ## conflicts  :  212 2791 
o 1129 | cpuTime 4.75202 s
c last restart ## conflicts  :  133 8474 
o 1092 | cpuTime 4.80029 s
c last restart ## conflicts  :  290 1983 
o 1065 | cpuTime 7.13041 s
c last restart ## conflicts  :  151 1887 
o 909 | cpuTime 9.63286 s
c last restart ## conflicts  :  246 3518 
o 899 | cpuTime 9.70646 s
c last restart ## conflicts  :  36 15377 
o 874 | cpuTime 9.72271 s
c last restart ## conflicts  :  341 2288 
o 815 | cpuTime 12.3018 s
c last restart ## conflicts  :  620 1595 
o 794 | cpuTime 19.1731 s
c last restart ## conflicts  :  123 11149 
o 781 | cpuTime 19.1937 s
c last restart ## conflicts  :  330 1647 
o 775 | cpuTime 43.9579 s
c last restart ## conflicts  :  184 1576 
o 756 | cpuTime 273.735 s
c last restart ## conflicts  :  2253 1634 
o 748 | cpuTime 473.774 s
c last restart ## conflicts  :  494 1335 
o 742 | cpuTime 528.986 s
c last restart ## conflicts  :  39 1541 
o 738 | cpuTime 560.838 s
c last restart ## conflicts  :  129 3027 
o 723 | cpuTime 560.91 s
c last restart ## conflicts  :  2 1505 
o 722 | cpuTime 939.315 s
c last restart ## conflicts  :  232 2317 
o 705 | cpuTime 1302.82 s
c last restart ## conflicts  :  228 2184 
o 668 | cpuTime 2834.38 s
s UNKNOWN
c Search is stopped by a limit (maybe time-limit)
cr positiVarArr: [ | 6@1(1->6) | 59@1(3->11) | 123@1(6->3) | 258@1(11->18) | 409@1(18->1) | 584@2(1->8) | 757@2(8->13) | 791@2(9->23) | 873@2(13->9) | 1105@2(23->1) | 1166@3(1->14) | 1249@3(5->1) | 1484@3(14->20) | 1493@3(15->5) | 1623@3(20->15) | 1744@4(1->16) | 1762@4(2->10) | 1801@4(4->1) | 1893@4(7->21) | 1968@4(10->24) | 1996@4(12->4) | 2095@4(16->7) | 2134@4(17->22) | 2162@4(19->2) | 2225@4(21->17) | 2251@4(22->19) | 2292@4(24->12) | ]
cr the 1-th chain: [ 1->6->3->11->18->1 ] (#non-depot=4) {#cumul.=5}
cr the 2-th chain: [ 1->8->13->9->23->1 ] (#non-depot=4) {#cumul.=9}
cr the 3-th chain: [ 1->14->20->15->5->1 ] (#non-depot=4) {#cumul.=13}
cr the 4-th chain: [ 1->16->7->21->17->22->19->2->10->24->12->4->1 ] (#non-depot=11) {#cumul.=24}
c Latest Answer = 0 by 22 loops
c restarts              : 45049
c conflicts             : 14088085       (3924 /sec)
c decisions             : 61448135       (0.00 % random) (17115 /sec)
c propagations          : 20229223198    (5634300 /sec)
c conflict literals     : 3751310958     (46.54 % deleted)
c Memory used           : 957.00 MB
c CPU time              : 3590.37 s
